log none
units metal 
dimension 3 
boundary p p p 
atom_style atomic 
atom_modify map array

variable den_out equal 6.7595 #target density

read_data /home/jsp/make_B2_related_data/ele4ratio/Sn32Te32.data

pair_style none

variable den_in equal density #current density
variable den_ratio equal ${den_in}/${den_out}
variable den_scale equal ${den_ratio}^(1.0/3.0)
print ""
print ""
print "**original density:"
print $(density)
print "**box scaling factor:"
print ${den_scale}

change_box all x scale ${den_scale} y scale ${den_scale} z scale ${den_scale} remap units box
write_data /home/jsp/make_B2_related_data/den_mod/temp.data 
print "**Density after scaling the box size:"
print $(density)

